c Reduced graph for R50_1g generated by Cyril Grelier
p edge 46 103
e 1 12
e 1 16
e 1 21
e 1 22
e 1 29
e 2 9
e 2 30
e 2 31
e 2 34
e 2 38
e 3 16
e 3 17
e 3 22
e 3 25
e 3 30
e 4 9
e 4 19
e 4 22
e 4 28
e 5 11
e 5 36
e 5 40
e 5 42
e 6 16
e 6 22
e 6 38
e 6 45
e 7 16
e 7 18
e 7 28
e 7 46
e 8 10
e 8 44
e 9 27
e 9 34
e 9 40
e 9 44
e 10 16
e 10 32
e 10 35
e 10 45
e 11 31
e 11 32
e 11 40
e 11 41
e 12 19
e 12 21
e 12 38
e 13 16
e 13 28
e 13 29
e 13 39
e 14 21
e 14 30
e 14 39
e 15 34
e 15 43
e 16 28
e 16 43
e 17 20
e 17 24
e 17 29
e 17 37
e 17 41
e 17 43
e 18 29
e 18 35
e 18 38
e 18 40
e 18 41
e 19 20
e 19 26
e 19 31
e 19 40
e 20 25
e 20 31
e 20 42
e 21 32
e 21 38
e 22 26
e 23 33
e 23 44
e 23 45
e 24 34
e 24 42
e 25 29
e 26 27
e 28 33
e 28 39
e 28 41
e 29 30
e 30 39
e 31 39
e 32 45
e 33 36
e 33 39
e 35 46
e 36 40
e 37 40
e 37 43
e 38 39
e 38 44
e 42 46
